f10_l-d_kp_20_879
n 20
c 879
z 1025
time
1, 91,  84, 0
2, 72,  83, 0
3, 90,  43, 0
4, 46,  4, 0
5, 55,  44, 0
6, 8 , 6, 0
7, 35,  82, 0
8, 75,  92, 0
9, 61,  25, 0
10, 15,  83, 0
11, 77,  56, 0
12, 40,  18, 0
13, 63,  58, 0
14, 75,  14, 0
15, 29,  48, 0
16, 75,  70, 0
17, 17,  96, 0
18, 78,  32, 0
19, 40,  68, 0
20, 44,  92, 0
---------------
